c File: flat100_3_0.col
c
c SOURCE: Joseph Culberson (joe@cs.ualberta.ca)
c DESCRIPTION: Quasi-random coloring problem
c              generated with flatness = 0
c                             probability = 0.072
c                             known coloring = 3
c                             random seed = 1086
c              Creation Date:  Thu Jun  4 18:56:52 1998
c Maximum degree = 8 Minimum degree = 1
c p edge 100 239
c cnf created by edge2cnf
p cnf 300 1117
-1 -2 0
-1 -3 0
-2 -3 0
1 2 3 0
-4 -5 0
-4 -6 0
-5 -6 0
4 5 6 0
-7 -8 0
-7 -9 0
-8 -9 0
7 8 9 0
-10 -11 0
-10 -12 0
-11 -12 0
10 11 12 0
-13 -14 0
-13 -15 0
-14 -15 0
13 14 15 0
-16 -17 0
-16 -18 0
-17 -18 0
16 17 18 0
-19 -20 0
-19 -21 0
-20 -21 0
19 20 21 0
-22 -23 0
-22 -24 0
-23 -24 0
22 23 24 0
-25 -26 0
-25 -27 0
-26 -27 0
25 26 27 0
-28 -29 0
-28 -30 0
-29 -30 0
28 29 30 0
-31 -32 0
-31 -33 0
-32 -33 0
31 32 33 0
-34 -35 0
-34 -36 0
-35 -36 0
34 35 36 0
-37 -38 0
-37 -39 0
-38 -39 0
37 38 39 0
-40 -41 0
-40 -42 0
-41 -42 0
40 41 42 0
-43 -44 0
-43 -45 0
-44 -45 0
43 44 45 0
-46 -47 0
-46 -48 0
-47 -48 0
46 47 48 0
-49 -50 0
-49 -51 0
-50 -51 0
49 50 51 0
-52 -53 0
-52 -54 0
-53 -54 0
52 53 54 0
-55 -56 0
-55 -57 0
-56 -57 0
55 56 57 0
-58 -59 0
-58 -60 0
-59 -60 0
58 59 60 0
-61 -62 0
-61 -63 0
-62 -63 0
61 62 63 0
-64 -65 0
-64 -66 0
-65 -66 0
64 65 66 0
-67 -68 0
-67 -69 0
-68 -69 0
67 68 69 0
-70 -71 0
-70 -72 0
-71 -72 0
70 71 72 0
-73 -74 0
-73 -75 0
-74 -75 0
73 74 75 0
-76 -77 0
-76 -78 0
-77 -78 0
76 77 78 0
-79 -80 0
-79 -81 0
-80 -81 0
79 80 81 0
-82 -83 0
-82 -84 0
-83 -84 0
82 83 84 0
-85 -86 0
-85 -87 0
-86 -87 0
85 86 87 0
-88 -89 0
-88 -90 0
-89 -90 0
88 89 90 0
-91 -92 0
-91 -93 0
-92 -93 0
91 92 93 0
-94 -95 0
-94 -96 0
-95 -96 0
94 95 96 0
-97 -98 0
-97 -99 0
-98 -99 0
97 98 99 0
-100 -101 0
-100 -102 0
-101 -102 0
100 101 102 0
-103 -104 0
-103 -105 0
-104 -105 0
103 104 105 0
-106 -107 0
-106 -108 0
-107 -108 0
106 107 108 0
-109 -110 0
-109 -111 0
-110 -111 0
109 110 111 0
-112 -113 0
-112 -114 0
-113 -114 0
112 113 114 0
-115 -116 0
-115 -117 0
-116 -117 0
115 116 117 0
-118 -119 0
-118 -120 0
-119 -120 0
118 119 120 0
-121 -122 0
-121 -123 0
-122 -123 0
121 122 123 0
-124 -125 0
-124 -126 0
-125 -126 0
124 125 126 0
-127 -128 0
-127 -129 0
-128 -129 0
127 128 129 0
-130 -131 0
-130 -132 0
-131 -132 0
130 131 132 0
-133 -134 0
-133 -135 0
-134 -135 0
133 134 135 0
-136 -137 0
-136 -138 0
-137 -138 0
136 137 138 0
-139 -140 0
-139 -141 0
-140 -141 0
139 140 141 0
-142 -143 0
-142 -144 0
-143 -144 0
142 143 144 0
-145 -146 0
-145 -147 0
-146 -147 0
145 146 147 0
-148 -149 0
-148 -150 0
-149 -150 0
148 149 150 0
-151 -152 0
-151 -153 0
-152 -153 0
151 152 153 0
-154 -155 0
-154 -156 0
-155 -156 0
154 155 156 0
-157 -158 0
-157 -159 0
-158 -159 0
157 158 159 0
-160 -161 0
-160 -162 0
-161 -162 0
160 161 162 0
-163 -164 0
-163 -165 0
-164 -165 0
163 164 165 0
-166 -167 0
-166 -168 0
-167 -168 0
166 167 168 0
-169 -170 0
-169 -171 0
-170 -171 0
169 170 171 0
-172 -173 0
-172 -174 0
-173 -174 0
172 173 174 0
-175 -176 0
-175 -177 0
-176 -177 0
175 176 177 0
-178 -179 0
-178 -180 0
-179 -180 0
178 179 180 0
-181 -182 0
-181 -183 0
-182 -183 0
181 182 183 0
-184 -185 0
-184 -186 0
-185 -186 0
184 185 186 0
-187 -188 0
-187 -189 0
-188 -189 0
187 188 189 0
-190 -191 0
-190 -192 0
-191 -192 0
190 191 192 0
-193 -194 0
-193 -195 0
-194 -195 0
193 194 195 0
-196 -197 0
-196 -198 0
-197 -198 0
196 197 198 0
-199 -200 0
-199 -201 0
-200 -201 0
199 200 201 0
-202 -203 0
-202 -204 0
-203 -204 0
202 203 204 0
-205 -206 0
-205 -207 0
-206 -207 0
205 206 207 0
-208 -209 0
-208 -210 0
-209 -210 0
208 209 210 0
-211 -212 0
-211 -213 0
-212 -213 0
211 212 213 0
-214 -215 0
-214 -216 0
-215 -216 0
214 215 216 0
-217 -218 0
-217 -219 0
-218 -219 0
217 218 219 0
-220 -221 0
-220 -222 0
-221 -222 0
220 221 222 0
-223 -224 0
-223 -225 0
-224 -225 0
223 224 225 0
-226 -227 0
-226 -228 0
-227 -228 0
226 227 228 0
-229 -230 0
-229 -231 0
-230 -231 0
229 230 231 0
-232 -233 0
-232 -234 0
-233 -234 0
232 233 234 0
-235 -236 0
-235 -237 0
-236 -237 0
235 236 237 0
-238 -239 0
-238 -240 0
-239 -240 0
238 239 240 0
-241 -242 0
-241 -243 0
-242 -243 0
241 242 243 0
-244 -245 0
-244 -246 0
-245 -246 0
244 245 246 0
-247 -248 0
-247 -249 0
-248 -249 0
247 248 249 0
-250 -251 0
-250 -252 0
-251 -252 0
250 251 252 0
-253 -254 0
-253 -255 0
-254 -255 0
253 254 255 0
-256 -257 0
-256 -258 0
-257 -258 0
256 257 258 0
-259 -260 0
-259 -261 0
-260 -261 0
259 260 261 0
-262 -263 0
-262 -264 0
-263 -264 0
262 263 264 0
-265 -266 0
-265 -267 0
-266 -267 0
265 266 267 0
-268 -269 0
-268 -270 0
-269 -270 0
268 269 270 0
-271 -272 0
-271 -273 0
-272 -273 0
271 272 273 0
-274 -275 0
-274 -276 0
-275 -276 0
274 275 276 0
-277 -278 0
-277 -279 0
-278 -279 0
277 278 279 0
-280 -281 0
-280 -282 0
-281 -282 0
280 281 282 0
-283 -284 0
-283 -285 0
-284 -285 0
283 284 285 0
-286 -287 0
-286 -288 0
-287 -288 0
286 287 288 0
-289 -290 0
-289 -291 0
-290 -291 0
289 290 291 0
-292 -293 0
-292 -294 0
-293 -294 0
292 293 294 0
-295 -296 0
-295 -297 0
-296 -297 0
295 296 297 0
-298 -299 0
-298 -300 0
-299 -300 0
298 299 300 0
-121 -1 0
-122 -2 0
-123 -3 0
-154 -1 0
-155 -2 0
-156 -3 0
-157 -1 0
-158 -2 0
-159 -3 0
-241 -1 0
-242 -2 0
-243 -3 0
-274 -1 0
-275 -2 0
-276 -3 0
-175 -4 0
-176 -5 0
-177 -6 0
-202 -4 0
-203 -5 0
-204 -6 0
-289 -4 0
-290 -5 0
-291 -6 0
-154 -7 0
-155 -8 0
-156 -9 0
-160 -7 0
-161 -8 0
-162 -9 0
-142 -10 0
-143 -11 0
-144 -12 0
-166 -10 0
-167 -11 0
-168 -12 0
-214 -10 0
-215 -11 0
-216 -12 0
-244 -10 0
-245 -11 0
-246 -12 0
-283 -10 0
-284 -11 0
-285 -12 0
-289 -10 0
-290 -11 0
-291 -12 0
-175 -13 0
-176 -14 0
-177 -15 0
-190 -13 0
-191 -14 0
-192 -15 0
-262 -13 0
-263 -14 0
-264 -15 0
-265 -13 0
-266 -14 0
-267 -15 0
-271 -13 0
-272 -14 0
-273 -15 0
-277 -13 0
-278 -14 0
-279 -15 0
-103 -16 0
-104 -17 0
-105 -18 0
-166 -16 0
-167 -17 0
-168 -18 0
-187 -16 0
-188 -17 0
-189 -18 0
-223 -16 0
-224 -17 0
-225 -18 0
-253 -16 0
-254 -17 0
-255 -18 0
-292 -16 0
-293 -17 0
-294 -18 0
-127 -19 0
-128 -20 0
-129 -21 0
-241 -19 0
-242 -20 0
-243 -21 0
-274 -19 0
-275 -20 0
-276 -21 0
-166 -22 0
-167 -23 0
-168 -24 0
-211 -25 0
-212 -26 0
-213 -27 0
-232 -25 0
-233 -26 0
-234 -27 0
-244 -25 0
-245 -26 0
-246 -27 0
-256 -25 0
-257 -26 0
-258 -27 0
-148 -28 0
-149 -29 0
-150 -30 0
-151 -28 0
-152 -29 0
-153 -30 0
-175 -28 0
-176 -29 0
-177 -30 0
-190 -28 0
-191 -29 0
-192 -30 0
-244 -28 0
-245 -29 0
-246 -30 0
-286 -28 0
-287 -29 0
-288 -30 0
-295 -28 0
-296 -29 0
-297 -30 0
-112 -31 0
-113 -32 0
-114 -33 0
-124 -31 0
-125 -32 0
-126 -33 0
-136 -31 0
-137 -32 0
-138 -33 0
-172 -31 0
-173 -32 0
-174 -33 0
-205 -31 0
-206 -32 0
-207 -33 0
-211 -31 0
-212 -32 0
-213 -33 0
-214 -31 0
-215 -32 0
-216 -33 0
-268 -31 0
-269 -32 0
-270 -33 0
-148 -34 0
-149 -35 0
-150 -36 0
-151 -34 0
-152 -35 0
-153 -36 0
-163 -34 0
-164 -35 0
-165 -36 0
-187 -34 0
-188 -35 0
-189 -36 0
-220 -34 0
-221 -35 0
-222 -36 0
-223 -34 0
-224 -35 0
-225 -36 0
-112 -37 0
-113 -38 0
-114 -39 0
-115 -37 0
-116 -38 0
-117 -39 0
-121 -37 0
-122 -38 0
-123 -39 0
-127 -37 0
-128 -38 0
-129 -39 0
-256 -37 0
-257 -38 0
-258 -39 0
-280 -37 0
-281 -38 0
-282 -39 0
-115 -40 0
-116 -41 0
-117 -42 0
-160 -40 0
-161 -41 0
-162 -42 0
-199 -40 0
-200 -41 0
-201 -42 0
-235 -40 0
-236 -41 0
-237 -42 0
-247 -40 0
-248 -41 0
-249 -42 0
-112 -43 0
-113 -44 0
-114 -45 0
-169 -43 0
-170 -44 0
-171 -45 0
-211 -43 0
-212 -44 0
-213 -45 0
-217 -43 0
-218 -44 0
-219 -45 0
-133 -46 0
-134 -47 0
-135 -48 0
-175 -46 0
-176 -47 0
-177 -48 0
-181 -46 0
-182 -47 0
-183 -48 0
-214 -46 0
-215 -47 0
-216 -48 0
-226 -46 0
-227 -47 0
-228 -48 0
-133 -49 0
-134 -50 0
-135 -51 0
-193 -49 0
-194 -50 0
-195 -51 0
-232 -49 0
-233 -50 0
-234 -51 0
-265 -49 0
-266 -50 0
-267 -51 0
-298 -49 0
-299 -50 0
-300 -51 0
-229 -52 0
-230 -53 0
-231 -54 0
-238 -52 0
-239 -53 0
-240 -54 0
-244 -52 0
-245 -53 0
-246 -54 0
-109 -55 0
-110 -56 0
-111 -57 0
-151 -55 0
-152 -56 0
-153 -57 0
-187 -55 0
-188 -56 0
-189 -57 0
-208 -55 0
-209 -56 0
-210 -57 0
-226 -55 0
-227 -56 0
-228 -57 0
-232 -55 0
-233 -56 0
-234 -57 0
-262 -55 0
-263 -56 0
-264 -57 0
-112 -58 0
-113 -59 0
-114 -60 0
-202 -58 0
-203 -59 0
-204 -60 0
-262 -58 0
-263 -59 0
-264 -60 0
-274 -58 0
-275 -59 0
-276 -60 0
-286 -58 0
-287 -59 0
-288 -60 0
-157 -61 0
-158 -62 0
-159 -63 0
-178 -61 0
-179 -62 0
-180 -63 0
-181 -61 0
-182 -62 0
-183 -63 0
-229 -61 0
-230 -62 0
-231 -63 0
-286 -61 0
-287 -62 0
-288 -63 0
-106 -64 0
-107 -65 0
-108 -66 0
-262 -64 0
-263 -65 0
-264 -66 0
-295 -64 0
-296 -65 0
-297 -66 0
-118 -67 0
-119 -68 0
-120 -69 0
-127 -67 0
-128 -68 0
-129 -69 0
-133 -67 0
-134 -68 0
-135 -69 0
-187 -67 0
-188 -68 0
-189 -69 0
-235 -67 0
-236 -68 0
-237 -69 0
-295 -67 0
-296 -68 0
-297 -69 0
-109 -70 0
-110 -71 0
-111 -72 0
-118 -70 0
-119 -71 0
-120 -72 0
-145 -70 0
-146 -71 0
-147 -72 0
-160 -70 0
-161 -71 0
-162 -72 0
-241 -70 0
-242 -71 0
-243 -72 0
-124 -73 0
-125 -74 0
-126 -75 0
-184 -73 0
-185 -74 0
-186 -75 0
-205 -73 0
-206 -74 0
-207 -75 0
-127 -76 0
-128 -77 0
-129 -78 0
-142 -76 0
-143 -77 0
-144 -78 0
-169 -76 0
-170 -77 0
-171 -78 0
-217 -76 0
-218 -77 0
-219 -78 0
-280 -76 0
-281 -77 0
-282 -78 0
-106 -79 0
-107 -80 0
-108 -81 0
-163 -79 0
-164 -80 0
-165 -81 0
-178 -79 0
-179 -80 0
-180 -81 0
-235 -79 0
-236 -80 0
-237 -81 0
-247 -79 0
-248 -80 0
-249 -81 0
-253 -79 0
-254 -80 0
-255 -81 0
-265 -79 0
-266 -80 0
-267 -81 0
-109 -82 0
-110 -83 0
-111 -84 0
-208 -82 0
-209 -83 0
-210 -84 0
-247 -82 0
-248 -83 0
-249 -84 0
-259 -82 0
-260 -83 0
-261 -84 0
-271 -82 0
-272 -83 0
-273 -84 0
-259 -85 0
-260 -86 0
-261 -87 0
-106 -88 0
-107 -89 0
-108 -90 0
-169 -88 0
-170 -89 0
-171 -90 0
-184 -88 0
-185 -89 0
-186 -90 0
-196 -88 0
-197 -89 0
-198 -90 0
-289 -88 0
-290 -89 0
-291 -90 0
-121 -91 0
-122 -92 0
-123 -93 0
-229 -91 0
-230 -92 0
-231 -93 0
-106 -94 0
-107 -95 0
-108 -96 0
-109 -94 0
-110 -95 0
-111 -96 0
-118 -94 0
-119 -95 0
-120 -96 0
-184 -94 0
-185 -95 0
-186 -96 0
-220 -94 0
-221 -95 0
-222 -96 0
-229 -94 0
-230 -95 0
-231 -96 0
-124 -97 0
-125 -98 0
-126 -99 0
-214 -97 0
-215 -98 0
-216 -99 0
-217 -97 0
-218 -98 0
-219 -99 0
-220 -97 0
-221 -98 0
-222 -99 0
-118 -100 0
-119 -101 0
-120 -102 0
-166 -100 0
-167 -101 0
-168 -102 0
-190 -100 0
-191 -101 0
-192 -102 0
-193 -100 0
-194 -101 0
-195 -102 0
-211 -100 0
-212 -101 0
-213 -102 0
-223 -100 0
-224 -101 0
-225 -102 0
-292 -100 0
-293 -101 0
-294 -102 0
-253 -103 0
-254 -104 0
-255 -105 0
-256 -103 0
-257 -104 0
-258 -105 0
-259 -103 0
-260 -104 0
-261 -105 0
-277 -103 0
-278 -104 0
-279 -105 0
-217 -109 0
-218 -110 0
-219 -111 0
-238 -109 0
-239 -110 0
-240 -111 0
-292 -109 0
-293 -110 0
-294 -111 0
-226 -112 0
-227 -113 0
-228 -114 0
-247 -112 0
-248 -113 0
-249 -114 0
-265 -112 0
-266 -113 0
-267 -114 0
-217 -115 0
-218 -116 0
-219 -117 0
-223 -115 0
-224 -116 0
-225 -117 0
-244 -115 0
-245 -116 0
-246 -117 0
-220 -118 0
-221 -119 0
-222 -120 0
-229 -118 0
-230 -119 0
-231 -120 0
-226 -121 0
-227 -122 0
-228 -123 0
-280 -121 0
-281 -122 0
-282 -123 0
-223 -124 0
-224 -125 0
-225 -126 0
-232 -124 0
-233 -125 0
-234 -126 0
-247 -124 0
-248 -125 0
-249 -126 0
-283 -124 0
-284 -125 0
-285 -126 0
-223 -127 0
-224 -128 0
-225 -129 0
-268 -127 0
-269 -128 0
-270 -129 0
-277 -127 0
-278 -128 0
-279 -129 0
-286 -127 0
-287 -128 0
-288 -129 0
-274 -130 0
-275 -131 0
-276 -132 0
-232 -133 0
-233 -134 0
-234 -135 0
-283 -133 0
-284 -134 0
-285 -135 0
-235 -136 0
-236 -137 0
-237 -138 0
-241 -136 0
-242 -137 0
-243 -138 0
-271 -136 0
-272 -137 0
-273 -138 0
-217 -139 0
-218 -140 0
-219 -141 0
-265 -142 0
-266 -143 0
-267 -144 0
-274 -142 0
-275 -143 0
-276 -144 0
-295 -142 0
-296 -143 0
-297 -144 0
-229 -145 0
-230 -146 0
-231 -147 0
-259 -145 0
-260 -146 0
-261 -147 0
-271 -145 0
-272 -146 0
-273 -147 0
-298 -148 0
-299 -149 0
-300 -150 0
-217 -151 0
-218 -152 0
-219 -153 0
-232 -151 0
-233 -152 0
-234 -153 0
-220 -154 0
-221 -155 0
-222 -156 0
-238 -154 0
-239 -155 0
-240 -156 0
-208 -157 0
-209 -158 0
-210 -159 0
-268 -157 0
-269 -158 0
-270 -159 0
-265 -160 0
-266 -161 0
-267 -162 0
-229 -163 0
-230 -164 0
-231 -165 0
-232 -166 0
-233 -167 0
-234 -168 0
-247 -166 0
-248 -167 0
-249 -168 0
-271 -166 0
-272 -167 0
-273 -168 0
-208 -169 0
-209 -170 0
-210 -171 0
-274 -172 0
-275 -173 0
-276 -174 0
-298 -172 0
-299 -173 0
-300 -174 0
-205 -175 0
-206 -176 0
-207 -177 0
-226 -175 0
-227 -176 0
-228 -177 0
-262 -175 0
-263 -176 0
-264 -177 0
-289 -175 0
-290 -176 0
-291 -177 0
-271 -178 0
-272 -179 0
-273 -180 0
-298 -178 0
-299 -179 0
-300 -180 0
-250 -181 0
-251 -182 0
-252 -183 0
-268 -181 0
-269 -182 0
-270 -183 0
-208 -184 0
-209 -185 0
-210 -186 0
-226 -184 0
-227 -185 0
-228 -186 0
-250 -184 0
-251 -185 0
-252 -186 0
-268 -184 0
-269 -185 0
-270 -186 0
-280 -187 0
-281 -188 0
-282 -189 0
-286 -187 0
-287 -188 0
-288 -189 0
-211 -190 0
-212 -191 0
-213 -192 0
-286 -190 0
-287 -191 0
-288 -192 0
-211 -193 0
-212 -194 0
-213 -195 0
-253 -193 0
-254 -194 0
-255 -195 0
-292 -193 0
-293 -194 0
-294 -195 0
-298 -193 0
-299 -194 0
-300 -195 0
-208 -196 0
-209 -197 0
-210 -198 0
-220 -196 0
-221 -197 0
-222 -198 0
-250 -196 0
-251 -197 0
-252 -198 0
-286 -196 0
-287 -197 0
-288 -198 0
-211 -199 0
-212 -200 0
-213 -201 0
